
(set-logic BV)

(define-fun shr1 ((x (BitVec 64))) (BitVec 64) (bvlshr x #x0000000000000001))
(define-fun shr4 ((x (BitVec 64))) (BitVec 64) (bvlshr x #x0000000000000004))
(define-fun shr16 ((x (BitVec 64))) (BitVec 64) (bvlshr x #x0000000000000010))
(define-fun shl1 ((x (BitVec 64))) (BitVec 64) (bvshl x #x0000000000000001))
(define-fun if0 ((x (BitVec 64)) (y (BitVec 64)) (z (BitVec 64))) (BitVec 64) (ite (= x #x0000000000000001) y z))
(define-fun func24  ((A (BitVec 64)) (B (BitVec 64)) (C (BitVec 64)) (D (BitVec 64)) ) (BitVec 64) (bvand (bvlshr (bvlshr C  D ) B ) A ))
(define-fun func25  ((A (BitVec 64)) (B (BitVec 64)) (C (BitVec 64)) ) (BitVec 64) (bvand (bvlshr B  C ) A ))
(define-fun func26  ((A (BitVec 64)) (B (BitVec 64)) ) (BitVec 64) (bvand (bvlshr B  #x0000000000000001 ) A ))
(define-fun func27  ((A (BitVec 64)) (B (BitVec 64)) ) (BitVec 64) (bvand (bvlshr B  #x0000000000000010 ) A ))
(define-fun func28  ((A (BitVec 64)) (B (BitVec 64)) ) (BitVec 64) (bvand (bvlshr B  #x0000000000000004 ) A ))
(define-fun func29  ((A (BitVec 64)) (B (BitVec 64)) ) (BitVec 64) (bvand (bvlshr A  B ) #x0000000000000001 ))
(define-fun func30  ((A (BitVec 64)) ) (BitVec 64) (bvand A  #x0000000000000001 ))
(define-fun func31  ((A (BitVec 64)) (B (BitVec 64)) (C (BitVec 64)) (D (BitVec 64)) ) (BitVec 64) (bvlshr (bvlshr (bvlshr C  D ) B ) A ))
(define-fun func32  ((A (BitVec 64)) (B (BitVec 64)) (C (BitVec 64)) ) (BitVec 64) (bvlshr (bvlshr (bvlshr C  #x0000000000000010 ) B ) A ))
(define-fun func33  ((A (BitVec 64)) (B (BitVec 64)) (C (BitVec 64)) ) (BitVec 64) (bvlshr (bvlshr (bvlshr B  C ) A ) #x0000000000000004 ))
(define-fun func34  ((A (BitVec 64)) (B (BitVec 64)) ) (BitVec 64) (bvlshr (bvlshr (bvlshr B  #x0000000000000010 ) A ) #x0000000000000004 ))
(define-fun func35  ((A (BitVec 64)) (B (BitVec 64)) (C (BitVec 64)) ) (BitVec 64) (bvlshr (bvlshr (bvlshr B  C ) #x0000000000000004 ) A ))
(define-fun func36  ((A (BitVec 64)) (B (BitVec 64)) (C (BitVec 64)) ) (BitVec 64) (bvlshr (bvlshr B  C ) A ))
(define-fun func37  ((A (BitVec 64)) (B (BitVec 64)) ) (BitVec 64) (bvlshr (bvlshr B  #x0000000000000010 ) A ))
(define-fun func38  ((A (BitVec 64)) (B (BitVec 64)) ) (BitVec 64) (bvlshr (bvlshr B  #x0000000000000004 ) A ))
(define-fun func39  ((A (BitVec 64)) (B (BitVec 64)) ) (BitVec 64) (bvlshr (bvlshr B  #x0000000000000001 ) A ))
(define-fun func40  ((A (BitVec 64)) (B (BitVec 64)) ) (BitVec 64) (bvlshr (bvlshr A  B ) #x0000000000000001 ))
(define-fun func41  ((A (BitVec 64)) (B (BitVec 64)) ) (BitVec 64) (bvlshr (bvlshr A  B ) #x0000000000000004 ))
(define-fun func42  ((A (BitVec 64)) (B (BitVec 64)) ) (BitVec 64) (bvlshr A  B ))
(define-fun func43  ((A (BitVec 64)) (B (BitVec 64)) (C (BitVec 64)) ) (BitVec 64) (bvlshr (bvshl B  C ) A ))
(define-fun func44  ((A (BitVec 64)) (B (BitVec 64)) ) (BitVec 64) (bvlshr (bvshl B  #x0000000000000001 ) A ))
(define-fun func45  ((A (BitVec 64)) (B (BitVec 64)) ) (BitVec 64) (bvlshr (bvshl A  B ) #x0000000000000004 ))
(define-fun func46  ((A (BitVec 64)) (B (BitVec 64)) (C (BitVec 64)) ) (BitVec 64) (bvlshr (bvadd B  C ) A ))
(define-fun func47  ((A (BitVec 64)) (B (BitVec 64)) ) (BitVec 64) (bvlshr (bvnot B ) A ))
(define-fun func48  ((A (BitVec 64)) ) (BitVec 64) (bvlshr (bvnot A ) #x0000000000000010 ))
(define-fun func49  ((A (BitVec 64)) (B (BitVec 64)) (C (BitVec 64)) ) (BitVec 64) (bvor (bvlshr B  C ) A ))
(define-fun func50  ((A (BitVec 64)) ) (BitVec 64) (bvor A  #x0000000000000001 ))
(define-fun func51  ((A (BitVec 64)) (B (BitVec 64)) (C (BitVec 64)) ) (BitVec 64) (bvshl (bvlshr B  C ) A ))
(define-fun func52  ((A (BitVec 64)) (B (BitVec 64)) ) (BitVec 64) (bvshl (bvlshr B  #x0000000000000001 ) A ))
(define-fun func53  ((A (BitVec 64)) (B (BitVec 64)) ) (BitVec 64) (bvshl (bvlshr A  B ) #x0000000000000001 ))
(define-fun func55  ((A (BitVec 64)) (B (BitVec 64)) (C (BitVec 64)) ) (BitVec 64) (bvadd (bvlshr B  C ) A ))
(define-fun func56  ((A (BitVec 64)) ) (BitVec 64) (bvadd A  #x0000000000000001 ))
(define-fun func57  ((A (BitVec 64)) (B (BitVec 64)) (C (BitVec 64)) ) (BitVec 64) (bvadd (bvshl B  C ) A ))
(define-fun func58  ((A (BitVec 64)) (B (BitVec 64)) ) (BitVec 64) (bvadd (bvshl B  #x0000000000000001 ) A ))
(define-fun func59  ((A (BitVec 64)) (B (BitVec 64)) ) (BitVec 64) (bvnot (bvshl (bvlshr A  B ) #x0000000000000001 )))
(define-fun func60  ((A (BitVec 64)) ) (BitVec 64) (bvnot (bvshl A  #x0000000000000001 )))
(synth-fun f ( (x (BitVec 64))) (BitVec 64)
(
(Start (BitVec 64) (
   #x0000000000000000
   #x0000000000000001
   x
   (func24 Start Start Start Start)
   (func25 Start Start Start)
   (func27 Start Start)
   (func28 Start Start)
   (func30 Start)
   (func33 Start Start Start)
   (func36 Start Start Start)
   (func39 Start Start)
   (func40 Start Start)
   (func42 Start Start)
   (func43 Start Start Start)
   (func47 Start Start)
   (func49 Start Start Start)
   (func50 Start)
   (func52 Start Start)
   (func53 Start Start)
   (func56 Start)
   (func57 Start Start Start)
   (func58 Start Start)
   (func59 Start Start)
   (bvnot Start)
   (shr1 Start)
   (shr4 Start)
   (bvor Start Start)
   (if0 Start Start Start)
))
))
(constraint (= (f #x9a4034cbef98a676) #x9a4034cbef98a678))
(constraint (= (f #xd98987eed81310ae) #xd98987eed81310b0))
(constraint (= (f #x7ec9414709ab973c) #x7ec9414709ab973e))
(constraint (= (f #x851e1763d2f083e4) #x851e1763d2f083e6))
(constraint (= (f #x755c0137967be90e) #x755c0137967be910))
(constraint (= (f #xb8842d3f38418dcf) #x0b8842d3f38418dd))
(constraint (= (f #x76e03ca3116d4497) #x076e03ca3116d449))
(constraint (= (f #xd008c3edf85a4895) #x0d008c3edf85a489))
(constraint (= (f #xc250fef59d7c0c0b) #x0c250fef59d7c0c1))
(constraint (= (f #x99f89a7aebbabfb1) #x099f89a7aebbabfb))
(constraint (= (f #x0000000000000001) #x0000000000000001))
(constraint (= (f #x16e076de27905400) #x16e076de27905402))
(constraint (= (f #x1cf9560dc84f7846) #x1cf9560dc84f7848))
(constraint (= (f #xe8957cb8a4b6fac0) #xe8957cb8a4b6fac2))
(constraint (= (f #x1104fff4491777cb) #x01104fff4491777d))
(constraint (= (f #xd869e9323da61dd7) #x0d869e9323da61dd))
(constraint (= (f #xd17c77e6ff9d589a) #xd17c77e6ff9d589c))
(constraint (= (f #x8c7ce4413c17efa6) #x8c7ce4413c17efa8))
(constraint (= (f #x58bf6d61a0caa9aa) #x58bf6d61a0caa9ac))
(constraint (= (f #x767d077c832747fc) #x767d077c832747fe))
(constraint (= (f #xda9b6c495046e84b) #x0da9b6c495046e85))
(constraint (= (f #x0000000000000001) #x0000000000000001))
(check-synth)
